13 965
525 7 505 7 381 7 218 9 50 11 850 15 664 21
525 7 505 7 381 7 218 9 50 11 850 15 664 21
525 7 505 7 381 7 218 9 50 11 850 15 664 21
535 8 494 8 422 11
528 7 484 7 368 7 122 9 895 13
528 7 484 7 368 7 122 9 895 13
525 7 482 7 367 7 213 9 32 11 824 18
525 7 482 7 367 7 213 9 32 11 824 18
528 7 482 7 366 7 179 12
528 7 482 7 366 7 179 12
535 8 494 8 422 11
525 7 451 7 273 7 204 9 768 11 586 18
520 7 441 7 347 7 188 9 17 11 840 15 710 23
